Minimize
    r
Subject to
    x111 + x121 + x131 + x141 + x151 + x161 = 2
    x112 + x122 + x132 + x142 + x152 + x162 = 3
    x113 + x123 + x133 + x143 + x153 + x163 = 4
    x114 + x124 + x134 + x144 + x154 + x164 = 5
    x115 + x125 + x135 + x145 + x155 + x165 = 6
    x116 + x126 + x136 + x146 + x156 + x166 = 7
    x117 + x127 + x137 + x147 + x157 + x167 = 8
    x211 + x221 + x231 + x241 + x251 + x261 = 3
    x212 + x222 + x232 + x242 + x252 + x262 = 4
    x213 + x223 + x233 + x243 + x253 + x263 = 5
    x214 + x224 + x234 + x244 + x254 + x264 = 6
    x215 + x225 + x235 + x245 + x255 + x265 = 7
    x216 + x226 + x236 + x246 + x256 + x266 = 8
    x217 + x227 + x237 + x247 + x257 + x267 = 9
    x311 + x321 + x331 + x341 + x351 + x361 = 4
    x312 + x322 + x332 + x342 + x352 + x362 = 5
    x313 + x323 + x333 + x343 + x353 + x363 = 6
    x314 + x324 + x334 + x344 + x354 + x364 = 7
    x315 + x325 + x335 + x345 + x355 + x365 = 8
    x316 + x326 + x336 + x346 + x356 + x366 = 9
    x317 + x327 + x337 + x347 + x357 + x367 = 10
    x411 + x421 + x431 + x441 + x451 + x461 = 5
    x412 + x422 + x432 + x442 + x452 + x462 = 6
    x413 + x423 + x433 + x443 + x453 + x463 = 7
    x414 + x424 + x434 + x444 + x454 + x464 = 8
    x415 + x425 + x435 + x445 + x455 + x465 = 9
    x416 + x426 + x436 + x446 + x456 + x466 = 10
    x417 + x427 + x437 + x447 + x457 + x467 = 11
    x511 + x521 + x531 + x541 + x551 + x561 = 6
    x512 + x522 + x532 + x542 + x552 + x562 = 7
    x513 + x523 + x533 + x543 + x553 + x563 = 8
    x514 + x524 + x534 + x544 + x554 + x564 = 9
    x515 + x525 + x535 + x545 + x555 + x565 = 10
    x516 + x526 + x536 + x546 + x556 + x566 = 11
    x517 + x527 + x537 + x547 + x557 + x567 = 12
    x611 + x621 + x631 + x641 + x651 + x661 = 7
    x612 + x622 + x632 + x642 + x652 + x662 = 8
    x613 + x623 + x633 + x643 + x653 + x663 = 9
    x614 + x624 + x634 + x644 + x654 + x664 = 10
    x615 + x625 + x635 + x645 + x655 + x665 = 11
    x616 + x626 + x636 + x646 + x656 + x666 = 12
    x617 + x627 + x637 + x647 + x657 + x667 = 13
    x711 + x721 + x731 + x741 + x751 + x761 = 8
    x712 + x722 + x732 + x742 + x752 + x762 = 9
    x713 + x723 + x733 + x743 + x753 + x763 = 10
    x714 + x724 + x734 + x744 + x754 + x764 = 11
    x715 + x725 + x735 + x745 + x755 + x765 = 12
    x716 + x726 + x736 + x746 + x756 + x766 = 13
    x717 + x727 + x737 + x747 + x757 + x767 = 14
     
    u111 + u121 + u131 + u141 + u151 + u161 = 2
    u112 + u122 + u132 + u142 + u152 + u162 = 2
    u113 + u123 + u133 + u143 + u153 + u163 = 2
    u114 + u124 + u134 + u144 + u154 + u164 = 2
    u115 + u125 + u135 + u145 + u155 + u165 = 2
    u116 + u126 + u136 + u146 + u156 + u166 = 2
    u117 + u127 + u137 + u147 + u157 + u167 = 2
    u211 + u221 + u231 + u241 + u251 + u261 = 2
    u212 + u222 + u232 + u242 + u252 + u262 = 2
    u213 + u223 + u233 + u243 + u253 + u263 = 2
    u214 + u224 + u234 + u244 + u254 + u264 = 2
    u215 + u225 + u235 + u245 + u255 + u265 = 2
    u216 + u226 + u236 + u246 + u256 + u266 = 2
    u217 + u227 + u237 + u247 + u257 + u267 = 2
    u311 + u321 + u331 + u341 + u351 + u361 = 2
    u312 + u322 + u332 + u342 + u352 + u362 = 2
    u313 + u323 + u333 + u343 + u353 + u363 = 2
    u314 + u324 + u334 + u344 + u354 + u364 = 2
    u315 + u325 + u335 + u345 + u355 + u365 = 2
    u316 + u326 + u336 + u346 + u356 + u366 = 2
    u317 + u327 + u337 + u347 + u357 + u367 = 2
    u411 + u421 + u431 + u441 + u451 + u461 = 2
    u412 + u422 + u432 + u442 + u452 + u462 = 2
    u413 + u423 + u433 + u443 + u453 + u463 = 2
    u414 + u424 + u434 + u444 + u454 + u464 = 2
    u415 + u425 + u435 + u445 + u455 + u465 = 2
    u416 + u426 + u436 + u446 + u456 + u466 = 2
    u417 + u427 + u437 + u447 + u457 + u467 = 2
    u511 + u521 + u531 + u541 + u551 + u561 = 2
    u512 + u522 + u532 + u542 + u552 + u562 = 2
    u513 + u523 + u533 + u543 + u553 + u563 = 2
    u514 + u524 + u534 + u544 + u554 + u564 = 2
    u515 + u525 + u535 + u545 + u555 + u565 = 2
    u516 + u526 + u536 + u546 + u556 + u566 = 2
    u517 + u527 + u537 + u547 + u557 + u567 = 2
    u611 + u621 + u631 + u641 + u651 + u661 = 2
    u612 + u622 + u632 + u642 + u652 + u662 = 2
    u613 + u623 + u633 + u643 + u653 + u663 = 2
    u614 + u624 + u634 + u644 + u654 + u664 = 2
    u615 + u625 + u635 + u645 + u655 + u665 = 2
    u616 + u626 + u636 + u646 + u656 + u666 = 2
    u617 + u627 + u637 + u647 + u657 + u667 = 2
    u711 + u721 + u731 + u741 + u751 + u761 = 2
    u712 + u722 + u732 + u742 + u752 + u762 = 2
    u713 + u723 + u733 + u743 + u753 + u763 = 2
    u714 + u724 + u734 + u744 + u754 + u764 = 2
    u715 + u725 + u735 + u745 + u755 + u765 = 2
    u716 + u726 + u736 + u746 + u756 + u766 = 2
    u717 + u727 + u737 + u747 + u757 + u767 = 2
     
    x111 - 1.0 u111 = 0
    x121 - 1.0 u121 = 0
    x131 - 1.0 u131 = 0
    x141 - 1.0 u141 = 0
    x151 - 1.0 u151 = 0
    x161 - 1.0 u161 = 0
    x112 - 1.5 u112 = 0
    x122 - 1.5 u122 = 0
    x132 - 1.5 u132 = 0
    x142 - 1.5 u142 = 0
    x152 - 1.5 u152 = 0
    x162 - 1.5 u162 = 0
    x113 - 2.0 u113 = 0
    x123 - 2.0 u123 = 0
    x133 - 2.0 u133 = 0
    x143 - 2.0 u143 = 0
    x153 - 2.0 u153 = 0
    x163 - 2.0 u163 = 0
    x114 - 2.5 u114 = 0
    x124 - 2.5 u124 = 0
    x134 - 2.5 u134 = 0
    x144 - 2.5 u144 = 0
    x154 - 2.5 u154 = 0
    x164 - 2.5 u164 = 0
    x115 - 3.0 u115 = 0
    x125 - 3.0 u125 = 0
    x135 - 3.0 u135 = 0
    x145 - 3.0 u145 = 0
    x155 - 3.0 u155 = 0
    x165 - 3.0 u165 = 0
    x116 - 3.5 u116 = 0
    x126 - 3.5 u126 = 0
    x136 - 3.5 u136 = 0
    x146 - 3.5 u146 = 0
    x156 - 3.5 u156 = 0
    x166 - 3.5 u166 = 0
    x117 - 4.0 u117 = 0
    x127 - 4.0 u127 = 0
    x137 - 4.0 u137 = 0
    x147 - 4.0 u147 = 0
    x157 - 4.0 u157 = 0
    x167 - 4.0 u167 = 0
    x211 - 1.5 u211 = 0
    x221 - 1.5 u221 = 0
    x231 - 1.5 u231 = 0
    x241 - 1.5 u241 = 0
    x251 - 1.5 u251 = 0
    x261 - 1.5 u261 = 0
    x212 - 2.0 u212 = 0
    x222 - 2.0 u222 = 0
    x232 - 2.0 u232 = 0
    x242 - 2.0 u242 = 0
    x252 - 2.0 u252 = 0
    x262 - 2.0 u262 = 0
    x213 - 2.5 u213 = 0
    x223 - 2.5 u223 = 0
    x233 - 2.5 u233 = 0
    x243 - 2.5 u243 = 0
    x253 - 2.5 u253 = 0
    x263 - 2.5 u263 = 0
    x214 - 3.0 u214 = 0
    x224 - 3.0 u224 = 0
    x234 - 3.0 u234 = 0
    x244 - 3.0 u244 = 0
    x254 - 3.0 u254 = 0
    x264 - 3.0 u264 = 0
    x215 - 3.5 u215 = 0
    x225 - 3.5 u225 = 0
    x235 - 3.5 u235 = 0
    x245 - 3.5 u245 = 0
    x255 - 3.5 u255 = 0
    x265 - 3.5 u265 = 0
    x216 - 4.0 u216 = 0
    x226 - 4.0 u226 = 0
    x236 - 4.0 u236 = 0
    x246 - 4.0 u246 = 0
    x256 - 4.0 u256 = 0
    x266 - 4.0 u266 = 0
    x217 - 4.5 u217 = 0
    x227 - 4.5 u227 = 0
    x237 - 4.5 u237 = 0
    x247 - 4.5 u247 = 0
    x257 - 4.5 u257 = 0
    x267 - 4.5 u267 = 0
    x311 - 2.0 u311 = 0
    x321 - 2.0 u321 = 0
    x331 - 2.0 u331 = 0
    x341 - 2.0 u341 = 0
    x351 - 2.0 u351 = 0
    x361 - 2.0 u361 = 0
    x312 - 2.5 u312 = 0
    x322 - 2.5 u322 = 0
    x332 - 2.5 u332 = 0
    x342 - 2.5 u342 = 0
    x352 - 2.5 u352 = 0
    x362 - 2.5 u362 = 0
    x313 - 3.0 u313 = 0
    x323 - 3.0 u323 = 0
    x333 - 3.0 u333 = 0
    x343 - 3.0 u343 = 0
    x353 - 3.0 u353 = 0
    x363 - 3.0 u363 = 0
    x314 - 3.5 u314 = 0
    x324 - 3.5 u324 = 0
    x334 - 3.5 u334 = 0
    x344 - 3.5 u344 = 0
    x354 - 3.5 u354 = 0
    x364 - 3.5 u364 = 0
    x315 - 4.0 u315 = 0
    x325 - 4.0 u325 = 0
    x335 - 4.0 u335 = 0
    x345 - 4.0 u345 = 0
    x355 - 4.0 u355 = 0
    x365 - 4.0 u365 = 0
    x316 - 4.5 u316 = 0
    x326 - 4.5 u326 = 0
    x336 - 4.5 u336 = 0
    x346 - 4.5 u346 = 0
    x356 - 4.5 u356 = 0
    x366 - 4.5 u366 = 0
    x317 - 5.0 u317 = 0
    x327 - 5.0 u327 = 0
    x337 - 5.0 u337 = 0
    x347 - 5.0 u347 = 0
    x357 - 5.0 u357 = 0
    x367 - 5.0 u367 = 0
    x411 - 2.5 u411 = 0
    x421 - 2.5 u421 = 0
    x431 - 2.5 u431 = 0
    x441 - 2.5 u441 = 0
    x451 - 2.5 u451 = 0
    x461 - 2.5 u461 = 0
    x412 - 3.0 u412 = 0
    x422 - 3.0 u422 = 0
    x432 - 3.0 u432 = 0
    x442 - 3.0 u442 = 0
    x452 - 3.0 u452 = 0
    x462 - 3.0 u462 = 0
    x413 - 3.5 u413 = 0
    x423 - 3.5 u423 = 0
    x433 - 3.5 u433 = 0
    x443 - 3.5 u443 = 0
    x453 - 3.5 u453 = 0
    x463 - 3.5 u463 = 0
    x414 - 4.0 u414 = 0
    x424 - 4.0 u424 = 0
    x434 - 4.0 u434 = 0
    x444 - 4.0 u444 = 0
    x454 - 4.0 u454 = 0
    x464 - 4.0 u464 = 0
    x415 - 4.5 u415 = 0
    x425 - 4.5 u425 = 0
    x435 - 4.5 u435 = 0
    x445 - 4.5 u445 = 0
    x455 - 4.5 u455 = 0
    x465 - 4.5 u465 = 0
    x416 - 5.0 u416 = 0
    x426 - 5.0 u426 = 0
    x436 - 5.0 u436 = 0
    x446 - 5.0 u446 = 0
    x456 - 5.0 u456 = 0
    x466 - 5.0 u466 = 0
    x417 - 5.5 u417 = 0
    x427 - 5.5 u427 = 0
    x437 - 5.5 u437 = 0
    x447 - 5.5 u447 = 0
    x457 - 5.5 u457 = 0
    x467 - 5.5 u467 = 0
    x511 - 3.0 u511 = 0
    x521 - 3.0 u521 = 0
    x531 - 3.0 u531 = 0
    x541 - 3.0 u541 = 0
    x551 - 3.0 u551 = 0
    x561 - 3.0 u561 = 0
    x512 - 3.5 u512 = 0
    x522 - 3.5 u522 = 0
    x532 - 3.5 u532 = 0
    x542 - 3.5 u542 = 0
    x552 - 3.5 u552 = 0
    x562 - 3.5 u562 = 0
    x513 - 4.0 u513 = 0
    x523 - 4.0 u523 = 0
    x533 - 4.0 u533 = 0
    x543 - 4.0 u543 = 0
    x553 - 4.0 u553 = 0
    x563 - 4.0 u563 = 0
    x514 - 4.5 u514 = 0
    x524 - 4.5 u524 = 0
    x534 - 4.5 u534 = 0
    x544 - 4.5 u544 = 0
    x554 - 4.5 u554 = 0
    x564 - 4.5 u564 = 0
    x515 - 5.0 u515 = 0
    x525 - 5.0 u525 = 0
    x535 - 5.0 u535 = 0
    x545 - 5.0 u545 = 0
    x555 - 5.0 u555 = 0
    x565 - 5.0 u565 = 0
    x516 - 5.5 u516 = 0
    x526 - 5.5 u526 = 0
    x536 - 5.5 u536 = 0
    x546 - 5.5 u546 = 0
    x556 - 5.5 u556 = 0
    x566 - 5.5 u566 = 0
    x517 - 6.0 u517 = 0
    x527 - 6.0 u527 = 0
    x537 - 6.0 u537 = 0
    x547 - 6.0 u547 = 0
    x557 - 6.0 u557 = 0
    x567 - 6.0 u567 = 0
    x611 - 3.5 u611 = 0
    x621 - 3.5 u621 = 0
    x631 - 3.5 u631 = 0
    x641 - 3.5 u641 = 0
    x651 - 3.5 u651 = 0
    x661 - 3.5 u661 = 0
    x612 - 4.0 u612 = 0
    x622 - 4.0 u622 = 0
    x632 - 4.0 u632 = 0
    x642 - 4.0 u642 = 0
    x652 - 4.0 u652 = 0
    x662 - 4.0 u662 = 0
    x613 - 4.5 u613 = 0
    x623 - 4.5 u623 = 0
    x633 - 4.5 u633 = 0
    x643 - 4.5 u643 = 0
    x653 - 4.5 u653 = 0
    x663 - 4.5 u663 = 0
    x614 - 5.0 u614 = 0
    x624 - 5.0 u624 = 0
    x634 - 5.0 u634 = 0
    x644 - 5.0 u644 = 0
    x654 - 5.0 u654 = 0
    x664 - 5.0 u664 = 0
    x615 - 5.5 u615 = 0
    x625 - 5.5 u625 = 0
    x635 - 5.5 u635 = 0
    x645 - 5.5 u645 = 0
    x655 - 5.5 u655 = 0
    x665 - 5.5 u665 = 0
    x616 - 6.0 u616 = 0
    x626 - 6.0 u626 = 0
    x636 - 6.0 u636 = 0
    x646 - 6.0 u646 = 0
    x656 - 6.0 u656 = 0
    x666 - 6.0 u666 = 0
    x617 - 6.5 u617 = 0
    x627 - 6.5 u627 = 0
    x637 - 6.5 u637 = 0
    x647 - 6.5 u647 = 0
    x657 - 6.5 u657 = 0
    x667 - 6.5 u667 = 0
    x711 - 4.0 u711 = 0
    x721 - 4.0 u721 = 0
    x731 - 4.0 u731 = 0
    x741 - 4.0 u741 = 0
    x751 - 4.0 u751 = 0
    x761 - 4.0 u761 = 0
    x712 - 4.5 u712 = 0
    x722 - 4.5 u722 = 0
    x732 - 4.5 u732 = 0
    x742 - 4.5 u742 = 0
    x752 - 4.5 u752 = 0
    x762 - 4.5 u762 = 0
    x713 - 5.0 u713 = 0
    x723 - 5.0 u723 = 0
    x733 - 5.0 u733 = 0
    x743 - 5.0 u743 = 0
    x753 - 5.0 u753 = 0
    x763 - 5.0 u763 = 0
    x714 - 5.5 u714 = 0
    x724 - 5.5 u724 = 0
    x734 - 5.5 u734 = 0
    x744 - 5.5 u744 = 0
    x754 - 5.5 u754 = 0
    x764 - 5.5 u764 = 0
    x715 - 6.0 u715 = 0
    x725 - 6.0 u725 = 0
    x735 - 6.0 u735 = 0
    x745 - 6.0 u745 = 0
    x755 - 6.0 u755 = 0
    x765 - 6.0 u765 = 0
    x716 - 6.5 u716 = 0
    x726 - 6.5 u726 = 0
    x736 - 6.5 u736 = 0
    x746 - 6.5 u746 = 0
    x756 - 6.5 u756 = 0
    x766 - 6.5 u766 = 0
    x717 - 7.0 u717 = 0
    x727 - 7.0 u727 = 0
    x737 - 7.0 u737 = 0
    x747 - 7.0 u747 = 0
    x757 - 7.0 u757 = 0
    x767 - 7.0 u767 = 0
     
    x111 u111 + x121 u121 + x131 u131 + x141 u141 + x151 u151 + x161 u161 = 2
    x112 u112 + x122 u122 + x132 u132 + x142 u142 + x152 u152 + x162 u162 = 3
    x113 u113 + x123 u123 + x133 u133 + x143 u143 + x153 u153 + x163 u163 = 4
    x114 u114 + x124 u124 + x134 u134 + x144 u144 + x154 u154 + x164 u164 = 5
    x115 u115 + x125 u125 + x135 u135 + x145 u145 + x155 u155 + x165 u165 = 6
    x116 u116 + x126 u126 + x136 u136 + x146 u146 + x156 u156 + x166 u166 = 7
    x117 u117 + x127 u127 + x137 u137 + x147 u147 + x157 u157 + x167 u167 = 8
    x211 u211 + x221 u221 + x231 u231 + x241 u241 + x251 u251 + x261 u261 = 3
    x212 u212 + x222 u222 + x232 u232 + x242 u242 + x252 u252 + x262 u262 = 4
    x213 u213 + x223 u223 + x233 u233 + x243 u243 + x253 u253 + x263 u263 = 5
    x214 u214 + x224 u224 + x234 u234 + x244 u244 + x254 u254 + x264 u264 = 6
    x215 u215 + x225 u225 + x235 u235 + x245 u245 + x255 u255 + x265 u265 = 7
    x216 u216 + x226 u226 + x236 u236 + x246 u246 + x256 u256 + x266 u266 = 8
    x217 u217 + x227 u227 + x237 u237 + x247 u247 + x257 u257 + x267 u267 = 9
    x311 u311 + x321 u321 + x331 u331 + x341 u341 + x351 u351 + x361 u361 = 4
    x312 u312 + x322 u322 + x332 u332 + x342 u342 + x352 u352 + x362 u362 = 5
    x313 u313 + x323 u323 + x333 u333 + x343 u343 + x353 u353 + x363 u363 = 6
    x314 u314 + x324 u324 + x334 u334 + x344 u344 + x354 u354 + x364 u364 = 7
    x315 u315 + x325 u325 + x335 u335 + x345 u345 + x355 u355 + x365 u365 = 8
    x316 u316 + x326 u326 + x336 u336 + x346 u346 + x356 u356 + x366 u366 = 9
    x317 u317 + x327 u327 + x337 u337 + x347 u347 + x357 u357 + x367 u367 = 10
    x411 u411 + x421 u421 + x431 u431 + x441 u441 + x451 u451 + x461 u461 = 5
    x412 u412 + x422 u422 + x432 u432 + x442 u442 + x452 u452 + x462 u462 = 6
    x413 u413 + x423 u423 + x433 u433 + x443 u443 + x453 u453 + x463 u463 = 7
    x414 u414 + x424 u424 + x434 u434 + x444 u444 + x454 u454 + x464 u464 = 8
    x415 u415 + x425 u425 + x435 u435 + x445 u445 + x455 u455 + x465 u465 = 9
    x416 u416 + x426 u426 + x436 u436 + x446 u446 + x456 u456 + x466 u466 = 10
    x417 u417 + x427 u427 + x437 u437 + x447 u447 + x457 u457 + x467 u467 = 11
    x511 u511 + x521 u521 + x531 u531 + x541 u541 + x551 u551 + x561 u561 = 6
    x512 u512 + x522 u522 + x532 u532 + x542 u542 + x552 u552 + x562 u562 = 7
    x513 u513 + x523 u523 + x533 u533 + x543 u543 + x553 u553 + x563 u563 = 8
    x514 u514 + x524 u524 + x534 u534 + x544 u544 + x554 u554 + x564 u564 = 9
    x515 u515 + x525 u525 + x535 u535 + x545 u545 + x555 u555 + x565 u565 = 10
    x516 u516 + x526 u526 + x536 u536 + x546 u546 + x556 u556 + x566 u566 = 11
    x517 u517 + x527 u527 + x537 u537 + x547 u547 + x557 u557 + x567 u567 = 12
    x611 u611 + x621 u621 + x631 u631 + x641 u641 + x651 u651 + x661 u661 = 7
    x612 u612 + x622 u622 + x632 u632 + x642 u642 + x652 u652 + x662 u662 = 8
    x613 u613 + x623 u623 + x633 u633 + x643 u643 + x653 u653 + x663 u663 = 9
    x614 u614 + x624 u624 + x634 u634 + x644 u644 + x654 u654 + x664 u664 = 10
    x615 u615 + x625 u625 + x635 u635 + x645 u645 + x655 u655 + x665 u665 = 11
    x616 u616 + x626 u626 + x636 u636 + x646 u646 + x656 u656 + x666 u666 = 12
    x617 u617 + x627 u627 + x637 u637 + x647 u647 + x657 u657 + x667 u667 = 13
    x711 u711 + x721 u721 + x731 u731 + x741 u741 + x751 u751 + x761 u761 = 8
    x712 u712 + x722 u722 + x732 u732 + x742 u742 + x752 u752 + x762 u762 = 9
    x713 u713 + x723 u723 + x733 u733 + x743 u743 + x753 u753 + x763 u763 = 10
    x714 u714 + x724 u724 + x734 u734 + x744 u744 + x754 u754 + x764 u764 = 11
    x715 u715 + x725 u725 + x735 u735 + x745 u745 + x755 u755 + x765 u765 = 12
    x716 u716 + x726 u726 + x736 u736 + x746 u746 + x756 u756 + x766 u766 = 13
    x717 u717 + x727 u727 + x737 u737 + x747 u747 + x757 u757 + x767 u767 = 14
     
    x111 u111 + x112 u112 + x113 u113 + x114 u114 + x115 u115 + x116 u116 + x117 u117 + x211 u211 + x212 u212 + x213 u213 + x214 u214 + x215 u215 + x216 u216 + x217 u217 + x311 u311 + x312 u312 + x313 u313 + x314 u314 + x315 u315 + x316 u316 + x317 u317 + x411 u411 + x412 u412 + x413 u413 + x414 u414 + x415 u415 + x416 u416 + x417 u417 + x511 u511 + x512 u512 + x513 u513 + x514 u514 + x515 u515 + x516 u516 + x517 u517 + x611 u611 + x612 u612 + x613 u613 + x614 u614 + x615 u615 + x616 u616 + x617 u617 + x711 u711 + x712 u712 + x713 u713 + x714 u714 + x715 u715 + x716 u716 + x717 u717 - r <= 0
    x121 u121 + x122 u122 + x123 u123 + x124 u124 + x125 u125 + x126 u126 + x127 u127 + x221 u221 + x222 u222 + x223 u223 + x224 u224 + x225 u225 + x226 u226 + x227 u227 + x321 u321 + x322 u322 + x323 u323 + x324 u324 + x325 u325 + x326 u326 + x327 u327 + x421 u421 + x422 u422 + x423 u423 + x424 u424 + x425 u425 + x426 u426 + x427 u427 + x521 u521 + x522 u522 + x523 u523 + x524 u524 + x525 u525 + x526 u526 + x527 u527 + x621 u621 + x622 u622 + x623 u623 + x624 u624 + x625 u625 + x626 u626 + x627 u627 + x721 u721 + x722 u722 + x723 u723 + x724 u724 + x725 u725 + x726 u726 + x727 u727 - r <= 0
    x131 u131 + x132 u132 + x133 u133 + x134 u134 + x135 u135 + x136 u136 + x137 u137 + x231 u231 + x232 u232 + x233 u233 + x234 u234 + x235 u235 + x236 u236 + x237 u237 + x331 u331 + x332 u332 + x333 u333 + x334 u334 + x335 u335 + x336 u336 + x337 u337 + x431 u431 + x432 u432 + x433 u433 + x434 u434 + x435 u435 + x436 u436 + x437 u437 + x531 u531 + x532 u532 + x533 u533 + x534 u534 + x535 u535 + x536 u536 + x537 u537 + x631 u631 + x632 u632 + x633 u633 + x634 u634 + x635 u635 + x636 u636 + x637 u637 + x731 u731 + x732 u732 + x733 u733 + x734 u734 + x735 u735 + x736 u736 + x737 u737 - r <= 0
    x141 u141 + x142 u142 + x143 u143 + x144 u144 + x145 u145 + x146 u146 + x147 u147 + x241 u241 + x242 u242 + x243 u243 + x244 u244 + x245 u245 + x246 u246 + x247 u247 + x341 u341 + x342 u342 + x343 u343 + x344 u344 + x345 u345 + x346 u346 + x347 u347 + x441 u441 + x442 u442 + x443 u443 + x444 u444 + x445 u445 + x446 u446 + x447 u447 + x541 u541 + x542 u542 + x543 u543 + x544 u544 + x545 u545 + x546 u546 + x547 u547 + x641 u641 + x642 u642 + x643 u643 + x644 u644 + x645 u645 + x646 u646 + x647 u647 + x741 u741 + x742 u742 + x743 u743 + x744 u744 + x745 u745 + x746 u746 + x747 u747 - r <= 0
    x151 u151 + x152 u152 + x153 u153 + x154 u154 + x155 u155 + x156 u156 + x157 u157 + x251 u251 + x252 u252 + x253 u253 + x254 u254 + x255 u255 + x256 u256 + x257 u257 + x351 u351 + x352 u352 + x353 u353 + x354 u354 + x355 u355 + x356 u356 + x357 u357 + x451 u451 + x452 u452 + x453 u453 + x454 u454 + x455 u455 + x456 u456 + x457 u457 + x551 u551 + x552 u552 + x553 u553 + x554 u554 + x555 u555 + x556 u556 + x557 u557 + x651 u651 + x652 u652 + x653 u653 + x654 u654 + x655 u655 + x656 u656 + x657 u657 + x751 u751 + x752 u752 + x753 u753 + x754 u754 + x755 u755 + x756 u756 + x757 u757 - r <= 0
    x161 u161 + x162 u162 + x163 u163 + x164 u164 + x165 u165 + x166 u166 + x167 u167 + x261 u261 + x262 u262 + x263 u263 + x264 u264 + x265 u265 + x266 u266 + x267 u267 + x361 u361 + x362 u362 + x363 u363 + x364 u364 + x365 u365 + x366 u366 + x367 u367 + x461 u461 + x462 u462 + x463 u463 + x464 u464 + x465 u465 + x466 u466 + x467 u467 + x561 u561 + x562 u562 + x563 u563 + x564 u564 + x565 u565 + x566 u566 + x567 u567 + x661 u661 + x662 u662 + x663 u663 + x664 u664 + x665 u665 + x666 u666 + x667 u667 + x761 u761 + x762 u762 + x763 u763 + x764 u764 + x765 u765 + x766 u766 + x767 u767 - r <= 0
     
Bounds
    x111 >= 0
    x112 >= 0
    x113 >= 0
    x114 >= 0
    x115 >= 0
    x116 >= 0
    x117 >= 0
    x121 >= 0
    x122 >= 0
    x123 >= 0
    x124 >= 0
    x125 >= 0
    x126 >= 0
    x127 >= 0
    x131 >= 0
    x132 >= 0
    x133 >= 0
    x134 >= 0
    x135 >= 0
    x136 >= 0
    x137 >= 0
    x141 >= 0
    x142 >= 0
    x143 >= 0
    x144 >= 0
    x145 >= 0
    x146 >= 0
    x147 >= 0
    x151 >= 0
    x152 >= 0
    x153 >= 0
    x154 >= 0
    x155 >= 0
    x156 >= 0
    x157 >= 0
    x161 >= 0
    x162 >= 0
    x163 >= 0
    x164 >= 0
    x165 >= 0
    x166 >= 0
    x167 >= 0
    x211 >= 0
    x212 >= 0
    x213 >= 0
    x214 >= 0
    x215 >= 0
    x216 >= 0
    x217 >= 0
    x221 >= 0
    x222 >= 0
    x223 >= 0
    x224 >= 0
    x225 >= 0
    x226 >= 0
    x227 >= 0
    x231 >= 0
    x232 >= 0
    x233 >= 0
    x234 >= 0
    x235 >= 0
    x236 >= 0
    x237 >= 0
    x241 >= 0
    x242 >= 0
    x243 >= 0
    x244 >= 0
    x245 >= 0
    x246 >= 0
    x247 >= 0
    x251 >= 0
    x252 >= 0
    x253 >= 0
    x254 >= 0
    x255 >= 0
    x256 >= 0
    x257 >= 0
    x261 >= 0
    x262 >= 0
    x263 >= 0
    x264 >= 0
    x265 >= 0
    x266 >= 0
    x267 >= 0
    x311 >= 0
    x312 >= 0
    x313 >= 0
    x314 >= 0
    x315 >= 0
    x316 >= 0
    x317 >= 0
    x321 >= 0
    x322 >= 0
    x323 >= 0
    x324 >= 0
    x325 >= 0
    x326 >= 0
    x327 >= 0
    x331 >= 0
    x332 >= 0
    x333 >= 0
    x334 >= 0
    x335 >= 0
    x336 >= 0
    x337 >= 0
    x341 >= 0
    x342 >= 0
    x343 >= 0
    x344 >= 0
    x345 >= 0
    x346 >= 0
    x347 >= 0
    x351 >= 0
    x352 >= 0
    x353 >= 0
    x354 >= 0
    x355 >= 0
    x356 >= 0
    x357 >= 0
    x361 >= 0
    x362 >= 0
    x363 >= 0
    x364 >= 0
    x365 >= 0
    x366 >= 0
    x367 >= 0
    x411 >= 0
    x412 >= 0
    x413 >= 0
    x414 >= 0
    x415 >= 0
    x416 >= 0
    x417 >= 0
    x421 >= 0
    x422 >= 0
    x423 >= 0
    x424 >= 0
    x425 >= 0
    x426 >= 0
    x427 >= 0
    x431 >= 0
    x432 >= 0
    x433 >= 0
    x434 >= 0
    x435 >= 0
    x436 >= 0
    x437 >= 0
    x441 >= 0
    x442 >= 0
    x443 >= 0
    x444 >= 0
    x445 >= 0
    x446 >= 0
    x447 >= 0
    x451 >= 0
    x452 >= 0
    x453 >= 0
    x454 >= 0
    x455 >= 0
    x456 >= 0
    x457 >= 0
    x461 >= 0
    x462 >= 0
    x463 >= 0
    x464 >= 0
    x465 >= 0
    x466 >= 0
    x467 >= 0
    x511 >= 0
    x512 >= 0
    x513 >= 0
    x514 >= 0
    x515 >= 0
    x516 >= 0
    x517 >= 0
    x521 >= 0
    x522 >= 0
    x523 >= 0
    x524 >= 0
    x525 >= 0
    x526 >= 0
    x527 >= 0
    x531 >= 0
    x532 >= 0
    x533 >= 0
    x534 >= 0
    x535 >= 0
    x536 >= 0
    x537 >= 0
    x541 >= 0
    x542 >= 0
    x543 >= 0
    x544 >= 0
    x545 >= 0
    x546 >= 0
    x547 >= 0
    x551 >= 0
    x552 >= 0
    x553 >= 0
    x554 >= 0
    x555 >= 0
    x556 >= 0
    x557 >= 0
    x561 >= 0
    x562 >= 0
    x563 >= 0
    x564 >= 0
    x565 >= 0
    x566 >= 0
    x567 >= 0
    x611 >= 0
    x612 >= 0
    x613 >= 0
    x614 >= 0
    x615 >= 0
    x616 >= 0
    x617 >= 0
    x621 >= 0
    x622 >= 0
    x623 >= 0
    x624 >= 0
    x625 >= 0
    x626 >= 0
    x627 >= 0
    x631 >= 0
    x632 >= 0
    x633 >= 0
    x634 >= 0
    x635 >= 0
    x636 >= 0
    x637 >= 0
    x641 >= 0
    x642 >= 0
    x643 >= 0
    x644 >= 0
    x645 >= 0
    x646 >= 0
    x647 >= 0
    x651 >= 0
    x652 >= 0
    x653 >= 0
    x654 >= 0
    x655 >= 0
    x656 >= 0
    x657 >= 0
    x661 >= 0
    x662 >= 0
    x663 >= 0
    x664 >= 0
    x665 >= 0
    x666 >= 0
    x667 >= 0
    x711 >= 0
    x712 >= 0
    x713 >= 0
    x714 >= 0
    x715 >= 0
    x716 >= 0
    x717 >= 0
    x721 >= 0
    x722 >= 0
    x723 >= 0
    x724 >= 0
    x725 >= 0
    x726 >= 0
    x727 >= 0
    x731 >= 0
    x732 >= 0
    x733 >= 0
    x734 >= 0
    x735 >= 0
    x736 >= 0
    x737 >= 0
    x741 >= 0
    x742 >= 0
    x743 >= 0
    x744 >= 0
    x745 >= 0
    x746 >= 0
    x747 >= 0
    x751 >= 0
    x752 >= 0
    x753 >= 0
    x754 >= 0
    x755 >= 0
    x756 >= 0
    x757 >= 0
    x761 >= 0
    x762 >= 0
    x763 >= 0
    x764 >= 0
    x765 >= 0
    x766 >= 0
    x767 >= 0
    r >= 0
Binary
    u111 u112 u113 u114 u115 u116 u117 u121 u122 u123 u124 u125 u126 u127 u131 u132 u133 u134 u135 u136 u137 u141 u142 u143 u144 u145 u146 u147 u151 u152 u153 u154 u155 u156 u157 u161 u162 u163 u164 u165 u166 u167 u211 u212 u213 u214 u215 u216 u217 u221 u222 u223 u224 u225 u226 u227 u231 u232 u233 u234 u235 u236 u237 u241 u242 u243 u244 u245 u246 u247 u251 u252 u253 u254 u255 u256 u257 u261 u262 u263 u264 u265 u266 u267 u311 u312 u313 u314 u315 u316 u317 u321 u322 u323 u324 u325 u326 u327 u331 u332 u333 u334 u335 u336 u337 u341 u342 u343 u344 u345 u346 u347 u351 u352 u353 u354 u355 u356 u357 u361 u362 u363 u364 u365 u366 u367 u411 u412 u413 u414 u415 u416 u417 u421 u422 u423 u424 u425 u426 u427 u431 u432 u433 u434 u435 u436 u437 u441 u442 u443 u444 u445 u446 u447 u451 u452 u453 u454 u455 u456 u457 u461 u462 u463 u464 u465 u466 u467 u511 u512 u513 u514 u515 u516 u517 u521 u522 u523 u524 u525 u526 u527 u531 u532 u533 u534 u535 u536 u537 u541 u542 u543 u544 u545 u546 u547 u551 u552 u553 u554 u555 u556 u557 u561 u562 u563 u564 u565 u566 u567 u611 u612 u613 u614 u615 u616 u617 u621 u622 u623 u624 u625 u626 u627 u631 u632 u633 u634 u635 u636 u637 u641 u642 u643 u644 u645 u646 u647 u651 u652 u653 u654 u655 u656 u657 u661 u662 u663 u664 u665 u666 u667 u711 u712 u713 u714 u715 u716 u717 u721 u722 u723 u724 u725 u726 u727 u731 u732 u733 u734 u735 u736 u737 u741 u742 u743 u744 u745 u746 u747 u751 u752 u753 u754 u755 u756 u757 u761 u762 u763 u764 u765 u766 u767
End